c ind 10 13 15 16 170 171 173 174 176 177 0
c ind 179 180 182 183 185 186 188 189 191 192 0
c ind 214 22 35 37 39 41 43 45 47 49 0
c ind 5 6 68 69 71 72 74 75 77 78 0
c ind 80 81 83 84 86 87 89 9 90 0
p cnf 214 580
-1 -2 11 0
-1 2 213 0
-100 -101 14 0
-100 101 108 0
-101 102 0
-101 48 0
-102 103 0
-102 46 0
-103 104 0
-103 44 0
-104 105 0
-104 42 0
-105 106 0
-105 40 0
-106 107 0
-106 38 0
-107 58 0
-107 99 0
-108 -109 59 0
-108 109 116 0
-109 110 0
-109 48 0
-11 -12 14 0
-11 12 17 0
-110 111 0
-110 46 0
-111 112 0
-111 44 0
-112 113 0
-112 42 0
-113 114 0
-113 40 0
-114 115 0
-114 33 0
-115 -13 39 0
-115 -39 13 0
-116 -117 23 0
-116 117 123 0
-117 118 0
-117 48 0
-118 119 0
-118 46 0
-119 120 0
-119 44 0
-12 -13 9 0
-12 -9 13 0
-120 121 0
-120 42 0
-121 122 0
-121 40 0
-122 115 0
-122 57 0
-123 -124 23 0
-123 124 130 0
-124 125 0
-124 48 0
-125 126 0
-125 46 0
-126 127 0
-126 44 0
-127 128 0
-127 42 0
-128 129 0
-128 40 0
-129 115 0
-129 98 0
-130 -131 23 0
-130 131 137 0
-131 132 0
-131 48 0
-132 133 0
-132 46 0
-133 134 0
-133 44 0
-134 135 0
-134 42 0
-135 136 0
-135 40 0
-136 107 0
-136 115 0
-137 -138 23 0
-137 138 144 0
-138 139 0
-138 48 0
-139 140 0
-139 46 0
-14 -15 16 0
-14 -16 15 0
-140 141 0
-140 44 0
-141 142 0
-141 42 0
-142 143 0
-142 32 0
-143 -13 41 0
-143 -41 13 0
-144 -145 23 0
-144 145 150 0
-145 146 0
-145 48 0
-146 147 0
-146 46 0
-147 148 0
-147 44 0
-148 149 0
-148 42 0
-149 143 0
-149 56 0
-150 -151 23 0
-150 151 156 0
-151 152 0
-151 48 0
-152 153 0
-152 46 0
-153 154 0
-153 44 0
-154 155 0
-154 31 0
-155 -13 43 0
-155 -43 13 0
-156 -157 161 0
-156 157 193 0
-157 158 0
-157 48 0
-158 159 0
-158 46 0
-159 160 0
-159 44 0
-16 0
-160 155 0
-160 55 0
-161 -162 23 0
-161 162 14 0
-162 163 0
-162 190 0
-163 164 0
-163 187 0
-164 165 0
-164 184 0
-165 166 0
-165 181 0
-166 167 0
-166 178 0
-167 168 0
-167 175 0
-168 169 0
-168 172 0
-169 -170 171 0
-169 -171 170 0
-17 -18 20 0
-17 18 213 0
-172 -173 174 0
-172 -174 173 0
-175 -176 177 0
-175 -177 176 0
-178 -179 180 0
-178 -180 179 0
-18 19 0
-18 3 0
-181 -182 183 0
-181 -183 182 0
-184 -185 186 0
-184 -186 185 0
-187 -188 189 0
-187 -189 188 0
-19 -13 5 0
-19 -5 13 0
-190 -191 192 0
-190 -192 191 0
-193 -194 14 0
-193 194 198 0
-194 195 0
-194 48 0
-195 196 0
-195 46 0
-196 197 0
-196 44 0
-197 155 0
-197 96 0
-198 -199 14 0
-198 199 203 0
-199 200 0
-199 48 0
-2 3 7 0
-20 -21 23 0
-20 21 24 0
-200 201 0
-200 46 0
-201 202 0
-201 44 0
-202 105 0
-202 155 0
-203 -204 23 0
-203 204 208 0
-204 205 0
-204 48 0
-205 206 0
-205 46 0
-206 207 0
-206 44 0
-207 113 0
-207 155 0
-208 -209 23 0
-208 209 14 0
-209 210 0
-209 48 0
-21 -16 22 0
-21 -22 16 0
-210 211 0
-210 46 0
-211 212 0
-211 44 0
-212 121 0
-212 155 0
-213 -15 214 0
-213 -214 15 0
-23 -13 15 0
-23 -15 13 0
-24 -25 26 0
-24 25 14 0
-25 -13 22 0
-25 -22 13 0
-26 -27 23 0
-26 27 50 0
-27 28 0
-27 48 0
-28 29 0
-28 46 0
-29 30 0
-29 44 0
-3 -4 0
-30 31 0
-30 42 0
-31 32 0
-31 40 0
-32 33 0
-32 38 0
-33 34 0
-33 36 0
-34 -16 35 0
-34 -35 16 0
-36 -16 37 0
-36 -37 16 0
-38 -16 39 0
-38 -39 16 0
-4 -5 6 0
-4 -6 5 0
-40 -16 41 0
-40 -41 16 0
-42 -16 43 0
-42 -43 16 0
-44 -16 45 0
-44 -45 16 0
-46 -16 47 0
-46 -47 16 0
-48 -16 49 0
-48 -49 16 0
-50 -51 59 0
-50 51 91 0
-51 48 0
-51 52 0
-52 46 0
-52 53 0
-53 44 0
-53 54 0
-54 42 0
-54 55 0
-55 40 0
-55 56 0
-56 38 0
-56 57 0
-57 36 0
-57 58 0
-58 -13 35 0
-58 -35 13 0
-59 -60 23 0
-59 60 14 0
-60 61 0
-60 88 0
-61 62 0
-61 85 0
-62 63 0
-62 82 0
-63 64 0
-63 79 0
-64 65 0
-64 76 0
-65 66 0
-65 73 0
-66 67 0
-66 70 0
-67 -68 69 0
-67 -69 68 0
-7 -8 0
-70 -71 72 0
-70 -72 71 0
-73 -74 75 0
-73 -75 74 0
-76 -77 78 0
-76 -78 77 0
-79 -80 81 0
-79 -81 80 0
-8 -10 9 0
-8 -9 10 0
-82 -83 84 0
-82 -84 83 0
-85 -86 87 0
-85 -87 86 0
-88 -89 90 0
-88 -90 89 0
-91 -92 23 0
-91 92 100 0
-92 48 0
-92 93 0
-93 46 0
-93 94 0
-94 44 0
-94 95 0
-95 42 0
-95 96 0
-96 40 0
-96 97 0
-97 38 0
-97 98 0
-98 34 0
-98 99 0
-99 -13 37 0
-99 -37 13 0
1 -11 -213 0
1 -2 -11 0
1 0
1 2 -213 0
100 -101 -14 0
100 -14 -108 0
100 101 -108 0
101 -102 -48 0
102 -103 -46 0
103 -104 -44 0
104 -105 -42 0
105 -106 -40 0
106 -107 -38 0
107 -58 -99 0
108 -109 -59 0
108 -59 -116 0
108 109 -116 0
109 -110 -48 0
11 -12 -14 0
11 -14 -17 0
11 12 -17 0
110 -111 -46 0
111 -112 -44 0
112 -113 -42 0
113 -114 -40 0
114 -33 -115 0
115 -39 -13 0
115 39 13 0
116 -117 -23 0
116 -23 -123 0
116 117 -123 0
117 -118 -48 0
118 -119 -46 0
119 -120 -44 0
12 -9 -13 0
12 9 13 0
120 -121 -42 0
121 -122 -40 0
122 -57 -115 0
123 -124 -23 0
123 -23 -130 0
123 124 -130 0
124 -125 -48 0
125 -126 -46 0
126 -127 -44 0
127 -128 -42 0
128 -129 -40 0
129 -98 -115 0
13 0
130 -131 -23 0
130 -23 -137 0
130 131 -137 0
131 -132 -48 0
132 -133 -46 0
133 -134 -44 0
134 -135 -42 0
135 -136 -40 0
136 -107 -115 0
137 -138 -23 0
137 -23 -144 0
137 138 -144 0
138 -139 -48 0
139 -140 -46 0
14 -15 -16 0
14 15 16 0
140 -141 -44 0
141 -142 -42 0
142 -32 -143 0
143 -41 -13 0
143 41 13 0
144 -145 -23 0
144 -23 -150 0
144 145 -150 0
145 -146 -48 0
146 -147 -46 0
147 -148 -44 0
148 -149 -42 0
149 -56 -143 0
150 -151 -23 0
150 -23 -156 0
150 151 -156 0
151 -152 -48 0
152 -153 -46 0
153 -154 -44 0
154 -31 -155 0
155 -43 -13 0
155 43 13 0
156 -157 -161 0
156 -161 -193 0
156 157 -193 0
157 -158 -48 0
158 -159 -46 0
159 -160 -44 0
160 -55 -155 0
161 -162 -23 0
161 -23 -14 0
161 162 -14 0
162 -163 -190 0
163 -164 -187 0
164 -165 -184 0
165 -166 -181 0
166 -167 -178 0
167 -168 -175 0
168 -169 -172 0
169 -170 -171 0
169 170 171 0
17 -18 -20 0
17 -20 -213 0
17 18 -213 0
172 -173 -174 0
172 173 174 0
175 -176 -177 0
175 176 177 0
178 -179 -180 0
178 179 180 0
18 -3 -19 0
181 -182 -183 0
181 182 183 0
184 -185 -186 0
184 185 186 0
187 -188 -189 0
187 188 189 0
19 -5 -13 0
19 5 13 0
190 -191 -192 0
190 191 192 0
193 -14 -198 0
193 -194 -14 0
193 194 -198 0
194 -195 -48 0
195 -196 -46 0
196 -197 -44 0
197 -96 -155 0
198 -14 -203 0
198 -199 -14 0
198 199 -203 0
199 -200 -48 0
2 -3 0
2 -7 0
20 -21 -23 0
20 -23 -24 0
20 21 -24 0
200 -201 -46 0
201 -202 -44 0
202 -105 -155 0
203 -204 -23 0
203 -23 -208 0
203 204 -208 0
204 -205 -48 0
205 -206 -46 0
206 -207 -44 0
207 -113 -155 0
208 -209 -23 0
208 -23 -14 0
208 209 -14 0
209 -210 -48 0
21 -22 -16 0
21 22 16 0
210 -211 -46 0
211 -212 -44 0
212 -121 -155 0
213 -15 -214 0
213 15 214 0
23 -15 -13 0
23 15 13 0
24 -25 -26 0
24 -26 -14 0
24 25 -14 0
25 -22 -13 0
25 22 13 0
26 -23 -50 0
26 -27 -23 0
26 27 -50 0
27 -28 -48 0
28 -29 -46 0
29 -30 -44 0
3 4 0
30 -31 -42 0
31 -32 -40 0
32 -33 -38 0
33 -34 -36 0
34 -35 -16 0
34 35 16 0
36 -37 -16 0
36 37 16 0
38 -39 -16 0
38 39 16 0
4 -5 -6 0
4 5 6 0
40 -41 -16 0
40 41 16 0
42 -43 -16 0
42 43 16 0
44 -45 -16 0
44 45 16 0
46 -47 -16 0
46 47 16 0
48 -49 -16 0
48 49 16 0
50 -51 -59 0
50 -59 -91 0
50 51 -91 0
51 -52 -48 0
52 -53 -46 0
53 -54 -44 0
54 -55 -42 0
55 -56 -40 0
56 -57 -38 0
57 -58 -36 0
58 -35 -13 0
58 35 13 0
59 -23 -14 0
59 -60 -23 0
59 60 -14 0
60 -61 -88 0
61 -62 -85 0
62 -63 -82 0
63 -64 -79 0
64 -65 -76 0
65 -66 -73 0
66 -67 -70 0
67 -68 -69 0
67 68 69 0
7 8 0
70 -71 -72 0
70 71 72 0
73 -74 -75 0
73 74 75 0
76 -77 -78 0
76 77 78 0
79 -80 -81 0
79 80 81 0
8 -9 -10 0
8 9 10 0
82 -83 -84 0
82 83 84 0
85 -86 -87 0
85 86 87 0
88 -89 -90 0
88 89 90 0
91 -23 -100 0
91 -92 -23 0
91 92 -100 0
92 -93 -48 0
93 -94 -46 0
94 -95 -44 0
95 -96 -42 0
96 -97 -40 0
97 -98 -38 0
98 -34 -99 0
99 -37 -13 0
99 37 13 0
